NAME : traveling-santa-2018-prime-paths.29173.tour
COMMENT : Length = 29173
COMMENT : Found by LKH [Keld Helsgaun] Sun Jun 12 20:00:19 2022
TYPE : TOUR
DIMENSION : 100
TOUR_SECTION
1
15
57
83
39
69
48
68
43
98
3
5
27
4
2
58
13
88
50
9
65
90
100
6
19
79
74
45
70
77
37
95
26
91
11
47
7
22
36
75
80
78
54
41
17
14
24
42
66
94
87
52
53
96
67
81
72
10
92
35
32
30
23
16
89
82
84
20
33
34
28
86
44
93
25
59
49
18
99
97
40
46
8
29
61
62
51
60
63
56
76
31
38
73
21
55
12
71
85
64
-1
EOF
